A4
0,1,2,3,0

A8
7,2,4,1,6,3,5,0,7

A9
6,7,3,0,8,1,5,2,4,6

A9-2
7,3,4,1,6,0,5,8,2,7

A10
5,0,6,7,3,4,8,9,2,1,5

A11
2,3,4,9,7,6,1,0,5,8,10,2

A12
3,2,7,0,6,9,11,1,5,8,10,4,3

A12-2
1,3,11,0,9,10,7,8,5,6,4,2,1

A13
11,9,1,12,2,8,0,6,3,4,5,7,10,11

A13-2
11,0,9,5,7,10,3,12,8,1,2,4,6,11

A30
25,12,8,14,17,24,10,29,6,9,28,0,20,4,5,2,11,16,7,26,3,22,15,27,1,19,21,13,18,23,25

A50
39,18,31,47,40,14,48,27,2,0,24,19,17,37,49,4,32,41,43,46,33,1,26,13,3,23,35,34,30,36,5,28,9,12,16,6,10,7,11,25,21,38,8,20,15,42,22,44,29,45,39

